Minimize
+w0+w1+w2+w3+w4+w5+w6+w7+w8+w9+w10+w11+w12+w13+w14+w15+w16+w17+w18+w19
Subject To
+node0_0+node0_1+node0_2+node0_3+node0_4+node0_5+node0_6+node0_7+node0_8+node0_9+node0_10+node0_11+node0_12+node0_13+node0_14+node0_15+node0_16+node0_17+node0_18+node0_19 = 1
+node1_0+node1_1+node1_2+node1_3+node1_4+node1_5+node1_6+node1_7+node1_8+node1_9+node1_10+node1_11+node1_12+node1_13+node1_14+node1_15+node1_16+node1_17+node1_18+node1_19 = 1
+node2_0+node2_1+node2_2+node2_3+node2_4+node2_5+node2_6+node2_7+node2_8+node2_9+node2_10+node2_11+node2_12+node2_13+node2_14+node2_15+node2_16+node2_17+node2_18+node2_19 = 1
+node3_0+node3_1+node3_2+node3_3+node3_4+node3_5+node3_6+node3_7+node3_8+node3_9+node3_10+node3_11+node3_12+node3_13+node3_14+node3_15+node3_16+node3_17+node3_18+node3_19 = 1
+node4_0+node4_1+node4_2+node4_3+node4_4+node4_5+node4_6+node4_7+node4_8+node4_9+node4_10+node4_11+node4_12+node4_13+node4_14+node4_15+node4_16+node4_17+node4_18+node4_19 = 1
+node5_0+node5_1+node5_2+node5_3+node5_4+node5_5+node5_6+node5_7+node5_8+node5_9+node5_10+node5_11+node5_12+node5_13+node5_14+node5_15+node5_16+node5_17+node5_18+node5_19 = 1
+node6_0+node6_1+node6_2+node6_3+node6_4+node6_5+node6_6+node6_7+node6_8+node6_9+node6_10+node6_11+node6_12+node6_13+node6_14+node6_15+node6_16+node6_17+node6_18+node6_19 = 1
+node7_0+node7_1+node7_2+node7_3+node7_4+node7_5+node7_6+node7_7+node7_8+node7_9+node7_10+node7_11+node7_12+node7_13+node7_14+node7_15+node7_16+node7_17+node7_18+node7_19 = 1
+node8_0+node8_1+node8_2+node8_3+node8_4+node8_5+node8_6+node8_7+node8_8+node8_9+node8_10+node8_11+node8_12+node8_13+node8_14+node8_15+node8_16+node8_17+node8_18+node8_19 = 1
+node9_0+node9_1+node9_2+node9_3+node9_4+node9_5+node9_6+node9_7+node9_8+node9_9+node9_10+node9_11+node9_12+node9_13+node9_14+node9_15+node9_16+node9_17+node9_18+node9_19 = 1
+node10_0+node10_1+node10_2+node10_3+node10_4+node10_5+node10_6+node10_7+node10_8+node10_9+node10_10+node10_11+node10_12+node10_13+node10_14+node10_15+node10_16+node10_17+node10_18+node10_19 = 1
+node11_0+node11_1+node11_2+node11_3+node11_4+node11_5+node11_6+node11_7+node11_8+node11_9+node11_10+node11_11+node11_12+node11_13+node11_14+node11_15+node11_16+node11_17+node11_18+node11_19 = 1
+node12_0+node12_1+node12_2+node12_3+node12_4+node12_5+node12_6+node12_7+node12_8+node12_9+node12_10+node12_11+node12_12+node12_13+node12_14+node12_15+node12_16+node12_17+node12_18+node12_19 = 1
+node13_0+node13_1+node13_2+node13_3+node13_4+node13_5+node13_6+node13_7+node13_8+node13_9+node13_10+node13_11+node13_12+node13_13+node13_14+node13_15+node13_16+node13_17+node13_18+node13_19 = 1
+node14_0+node14_1+node14_2+node14_3+node14_4+node14_5+node14_6+node14_7+node14_8+node14_9+node14_10+node14_11+node14_12+node14_13+node14_14+node14_15+node14_16+node14_17+node14_18+node14_19 = 1
+node15_0+node15_1+node15_2+node15_3+node15_4+node15_5+node15_6+node15_7+node15_8+node15_9+node15_10+node15_11+node15_12+node15_13+node15_14+node15_15+node15_16+node15_17+node15_18+node15_19 = 1
+node16_0+node16_1+node16_2+node16_3+node16_4+node16_5+node16_6+node16_7+node16_8+node16_9+node16_10+node16_11+node16_12+node16_13+node16_14+node16_15+node16_16+node16_17+node16_18+node16_19 = 1
+node17_0+node17_1+node17_2+node17_3+node17_4+node17_5+node17_6+node17_7+node17_8+node17_9+node17_10+node17_11+node17_12+node17_13+node17_14+node17_15+node17_16+node17_17+node17_18+node17_19 = 1
+node18_0+node18_1+node18_2+node18_3+node18_4+node18_5+node18_6+node18_7+node18_8+node18_9+node18_10+node18_11+node18_12+node18_13+node18_14+node18_15+node18_16+node18_17+node18_18+node18_19 = 1
+node19_0+node19_1+node19_2+node19_3+node19_4+node19_5+node19_6+node19_7+node19_8+node19_9+node19_10+node19_11+node19_12+node19_13+node19_14+node19_15+node19_16+node19_17+node19_18+node19_19 = 1
node0_0 - w0 <= 0
node0_1 - w1 <= 0
node0_2 - w2 <= 0
node0_3 - w3 <= 0
node0_4 - w4 <= 0
node0_5 - w5 <= 0
node0_6 - w6 <= 0
node0_7 - w7 <= 0
node0_8 - w8 <= 0
node0_9 - w9 <= 0
node0_10 - w10 <= 0
node0_11 - w11 <= 0
node0_12 - w12 <= 0
node0_13 - w13 <= 0
node0_14 - w14 <= 0
node0_15 - w15 <= 0
node0_16 - w16 <= 0
node0_17 - w17 <= 0
node0_18 - w18 <= 0
node0_19 - w19 <= 0
node1_0 - w0 <= 0
node1_1 - w1 <= 0
node1_2 - w2 <= 0
node1_3 - w3 <= 0
node1_4 - w4 <= 0
node1_5 - w5 <= 0
node1_6 - w6 <= 0
node1_7 - w7 <= 0
node1_8 - w8 <= 0
node1_9 - w9 <= 0
node1_10 - w10 <= 0
node1_11 - w11 <= 0
node1_12 - w12 <= 0
node1_13 - w13 <= 0
node1_14 - w14 <= 0
node1_15 - w15 <= 0
node1_16 - w16 <= 0
node1_17 - w17 <= 0
node1_18 - w18 <= 0
node1_19 - w19 <= 0
node2_0 - w0 <= 0
node2_1 - w1 <= 0
node2_2 - w2 <= 0
node2_3 - w3 <= 0
node2_4 - w4 <= 0
node2_5 - w5 <= 0
node2_6 - w6 <= 0
node2_7 - w7 <= 0
node2_8 - w8 <= 0
node2_9 - w9 <= 0
node2_10 - w10 <= 0
node2_11 - w11 <= 0
node2_12 - w12 <= 0
node2_13 - w13 <= 0
node2_14 - w14 <= 0
node2_15 - w15 <= 0
node2_16 - w16 <= 0
node2_17 - w17 <= 0
node2_18 - w18 <= 0
node2_19 - w19 <= 0
node3_0 - w0 <= 0
node3_1 - w1 <= 0
node3_2 - w2 <= 0
node3_3 - w3 <= 0
node3_4 - w4 <= 0
node3_5 - w5 <= 0
node3_6 - w6 <= 0
node3_7 - w7 <= 0
node3_8 - w8 <= 0
node3_9 - w9 <= 0
node3_10 - w10 <= 0
node3_11 - w11 <= 0
node3_12 - w12 <= 0
node3_13 - w13 <= 0
node3_14 - w14 <= 0
node3_15 - w15 <= 0
node3_16 - w16 <= 0
node3_17 - w17 <= 0
node3_18 - w18 <= 0
node3_19 - w19 <= 0
node4_0 - w0 <= 0
node4_1 - w1 <= 0
node4_2 - w2 <= 0
node4_3 - w3 <= 0
node4_4 - w4 <= 0
node4_5 - w5 <= 0
node4_6 - w6 <= 0
node4_7 - w7 <= 0
node4_8 - w8 <= 0
node4_9 - w9 <= 0
node4_10 - w10 <= 0
node4_11 - w11 <= 0
node4_12 - w12 <= 0
node4_13 - w13 <= 0
node4_14 - w14 <= 0
node4_15 - w15 <= 0
node4_16 - w16 <= 0
node4_17 - w17 <= 0
node4_18 - w18 <= 0
node4_19 - w19 <= 0
node5_0 - w0 <= 0
node5_1 - w1 <= 0
node5_2 - w2 <= 0
node5_3 - w3 <= 0
node5_4 - w4 <= 0
node5_5 - w5 <= 0
node5_6 - w6 <= 0
node5_7 - w7 <= 0
node5_8 - w8 <= 0
node5_9 - w9 <= 0
node5_10 - w10 <= 0
node5_11 - w11 <= 0
node5_12 - w12 <= 0
node5_13 - w13 <= 0
node5_14 - w14 <= 0
node5_15 - w15 <= 0
node5_16 - w16 <= 0
node5_17 - w17 <= 0
node5_18 - w18 <= 0
node5_19 - w19 <= 0
node6_0 - w0 <= 0
node6_1 - w1 <= 0
node6_2 - w2 <= 0
node6_3 - w3 <= 0
node6_4 - w4 <= 0
node6_5 - w5 <= 0
node6_6 - w6 <= 0
node6_7 - w7 <= 0
node6_8 - w8 <= 0
node6_9 - w9 <= 0
node6_10 - w10 <= 0
node6_11 - w11 <= 0
node6_12 - w12 <= 0
node6_13 - w13 <= 0
node6_14 - w14 <= 0
node6_15 - w15 <= 0
node6_16 - w16 <= 0
node6_17 - w17 <= 0
node6_18 - w18 <= 0
node6_19 - w19 <= 0
node7_0 - w0 <= 0
node7_1 - w1 <= 0
node7_2 - w2 <= 0
node7_3 - w3 <= 0
node7_4 - w4 <= 0
node7_5 - w5 <= 0
node7_6 - w6 <= 0
node7_7 - w7 <= 0
node7_8 - w8 <= 0
node7_9 - w9 <= 0
node7_10 - w10 <= 0
node7_11 - w11 <= 0
node7_12 - w12 <= 0
node7_13 - w13 <= 0
node7_14 - w14 <= 0
node7_15 - w15 <= 0
node7_16 - w16 <= 0
node7_17 - w17 <= 0
node7_18 - w18 <= 0
node7_19 - w19 <= 0
node8_0 - w0 <= 0
node8_1 - w1 <= 0
node8_2 - w2 <= 0
node8_3 - w3 <= 0
node8_4 - w4 <= 0
node8_5 - w5 <= 0
node8_6 - w6 <= 0
node8_7 - w7 <= 0
node8_8 - w8 <= 0
node8_9 - w9 <= 0
node8_10 - w10 <= 0
node8_11 - w11 <= 0
node8_12 - w12 <= 0
node8_13 - w13 <= 0
node8_14 - w14 <= 0
node8_15 - w15 <= 0
node8_16 - w16 <= 0
node8_17 - w17 <= 0
node8_18 - w18 <= 0
node8_19 - w19 <= 0
node9_0 - w0 <= 0
node9_1 - w1 <= 0
node9_2 - w2 <= 0
node9_3 - w3 <= 0
node9_4 - w4 <= 0
node9_5 - w5 <= 0
node9_6 - w6 <= 0
node9_7 - w7 <= 0
node9_8 - w8 <= 0
node9_9 - w9 <= 0
node9_10 - w10 <= 0
node9_11 - w11 <= 0
node9_12 - w12 <= 0
node9_13 - w13 <= 0
node9_14 - w14 <= 0
node9_15 - w15 <= 0
node9_16 - w16 <= 0
node9_17 - w17 <= 0
node9_18 - w18 <= 0
node9_19 - w19 <= 0
node10_0 - w0 <= 0
node10_1 - w1 <= 0
node10_2 - w2 <= 0
node10_3 - w3 <= 0
node10_4 - w4 <= 0
node10_5 - w5 <= 0
node10_6 - w6 <= 0
node10_7 - w7 <= 0
node10_8 - w8 <= 0
node10_9 - w9 <= 0
node10_10 - w10 <= 0
node10_11 - w11 <= 0
node10_12 - w12 <= 0
node10_13 - w13 <= 0
node10_14 - w14 <= 0
node10_15 - w15 <= 0
node10_16 - w16 <= 0
node10_17 - w17 <= 0
node10_18 - w18 <= 0
node10_19 - w19 <= 0
node11_0 - w0 <= 0
node11_1 - w1 <= 0
node11_2 - w2 <= 0
node11_3 - w3 <= 0
node11_4 - w4 <= 0
node11_5 - w5 <= 0
node11_6 - w6 <= 0
node11_7 - w7 <= 0
node11_8 - w8 <= 0
node11_9 - w9 <= 0
node11_10 - w10 <= 0
node11_11 - w11 <= 0
node11_12 - w12 <= 0
node11_13 - w13 <= 0
node11_14 - w14 <= 0
node11_15 - w15 <= 0
node11_16 - w16 <= 0
node11_17 - w17 <= 0
node11_18 - w18 <= 0
node11_19 - w19 <= 0
node12_0 - w0 <= 0
node12_1 - w1 <= 0
node12_2 - w2 <= 0
node12_3 - w3 <= 0
node12_4 - w4 <= 0
node12_5 - w5 <= 0
node12_6 - w6 <= 0
node12_7 - w7 <= 0
node12_8 - w8 <= 0
node12_9 - w9 <= 0
node12_10 - w10 <= 0
node12_11 - w11 <= 0
node12_12 - w12 <= 0
node12_13 - w13 <= 0
node12_14 - w14 <= 0
node12_15 - w15 <= 0
node12_16 - w16 <= 0
node12_17 - w17 <= 0
node12_18 - w18 <= 0
node12_19 - w19 <= 0
node13_0 - w0 <= 0
node13_1 - w1 <= 0
node13_2 - w2 <= 0
node13_3 - w3 <= 0
node13_4 - w4 <= 0
node13_5 - w5 <= 0
node13_6 - w6 <= 0
node13_7 - w7 <= 0
node13_8 - w8 <= 0
node13_9 - w9 <= 0
node13_10 - w10 <= 0
node13_11 - w11 <= 0
node13_12 - w12 <= 0
node13_13 - w13 <= 0
node13_14 - w14 <= 0
node13_15 - w15 <= 0
node13_16 - w16 <= 0
node13_17 - w17 <= 0
node13_18 - w18 <= 0
node13_19 - w19 <= 0
node14_0 - w0 <= 0
node14_1 - w1 <= 0
node14_2 - w2 <= 0
node14_3 - w3 <= 0
node14_4 - w4 <= 0
node14_5 - w5 <= 0
node14_6 - w6 <= 0
node14_7 - w7 <= 0
node14_8 - w8 <= 0
node14_9 - w9 <= 0
node14_10 - w10 <= 0
node14_11 - w11 <= 0
node14_12 - w12 <= 0
node14_13 - w13 <= 0
node14_14 - w14 <= 0
node14_15 - w15 <= 0
node14_16 - w16 <= 0
node14_17 - w17 <= 0
node14_18 - w18 <= 0
node14_19 - w19 <= 0
node15_0 - w0 <= 0
node15_1 - w1 <= 0
node15_2 - w2 <= 0
node15_3 - w3 <= 0
node15_4 - w4 <= 0
node15_5 - w5 <= 0
node15_6 - w6 <= 0
node15_7 - w7 <= 0
node15_8 - w8 <= 0
node15_9 - w9 <= 0
node15_10 - w10 <= 0
node15_11 - w11 <= 0
node15_12 - w12 <= 0
node15_13 - w13 <= 0
node15_14 - w14 <= 0
node15_15 - w15 <= 0
node15_16 - w16 <= 0
node15_17 - w17 <= 0
node15_18 - w18 <= 0
node15_19 - w19 <= 0
node16_0 - w0 <= 0
node16_1 - w1 <= 0
node16_2 - w2 <= 0
node16_3 - w3 <= 0
node16_4 - w4 <= 0
node16_5 - w5 <= 0
node16_6 - w6 <= 0
node16_7 - w7 <= 0
node16_8 - w8 <= 0
node16_9 - w9 <= 0
node16_10 - w10 <= 0
node16_11 - w11 <= 0
node16_12 - w12 <= 0
node16_13 - w13 <= 0
node16_14 - w14 <= 0
node16_15 - w15 <= 0
node16_16 - w16 <= 0
node16_17 - w17 <= 0
node16_18 - w18 <= 0
node16_19 - w19 <= 0
node17_0 - w0 <= 0
node17_1 - w1 <= 0
node17_2 - w2 <= 0
node17_3 - w3 <= 0
node17_4 - w4 <= 0
node17_5 - w5 <= 0
node17_6 - w6 <= 0
node17_7 - w7 <= 0
node17_8 - w8 <= 0
node17_9 - w9 <= 0
node17_10 - w10 <= 0
node17_11 - w11 <= 0
node17_12 - w12 <= 0
node17_13 - w13 <= 0
node17_14 - w14 <= 0
node17_15 - w15 <= 0
node17_16 - w16 <= 0
node17_17 - w17 <= 0
node17_18 - w18 <= 0
node17_19 - w19 <= 0
node18_0 - w0 <= 0
node18_1 - w1 <= 0
node18_2 - w2 <= 0
node18_3 - w3 <= 0
node18_4 - w4 <= 0
node18_5 - w5 <= 0
node18_6 - w6 <= 0
node18_7 - w7 <= 0
node18_8 - w8 <= 0
node18_9 - w9 <= 0
node18_10 - w10 <= 0
node18_11 - w11 <= 0
node18_12 - w12 <= 0
node18_13 - w13 <= 0
node18_14 - w14 <= 0
node18_15 - w15 <= 0
node18_16 - w16 <= 0
node18_17 - w17 <= 0
node18_18 - w18 <= 0
node18_19 - w19 <= 0
node19_0 - w0 <= 0
node19_1 - w1 <= 0
node19_2 - w2 <= 0
node19_3 - w3 <= 0
node19_4 - w4 <= 0
node19_5 - w5 <= 0
node19_6 - w6 <= 0
node19_7 - w7 <= 0
node19_8 - w8 <= 0
node19_9 - w9 <= 0
node19_10 - w10 <= 0
node19_11 - w11 <= 0
node19_12 - w12 <= 0
node19_13 - w13 <= 0
node19_14 - w14 <= 0
node19_15 - w15 <= 0
node19_16 - w16 <= 0
node19_17 - w17 <= 0
node19_18 - w18 <= 0
node19_19 - w19 <= 0
node15_0 + node0_0 <= 1
node15_1 + node0_1 <= 1
node15_2 + node0_2 <= 1
node15_3 + node0_3 <= 1
node15_4 + node0_4 <= 1
node15_5 + node0_5 <= 1
node15_6 + node0_6 <= 1
node15_7 + node0_7 <= 1
node15_8 + node0_8 <= 1
node15_9 + node0_9 <= 1
node15_10 + node0_10 <= 1
node15_11 + node0_11 <= 1
node15_12 + node0_12 <= 1
node15_13 + node0_13 <= 1
node15_14 + node0_14 <= 1
node15_15 + node0_15 <= 1
node15_16 + node0_16 <= 1
node15_17 + node0_17 <= 1
node15_18 + node0_18 <= 1
node15_19 + node0_19 <= 1
node16_0 + node11_0 <= 1
node16_1 + node11_1 <= 1
node16_2 + node11_2 <= 1
node16_3 + node11_3 <= 1
node16_4 + node11_4 <= 1
node16_5 + node11_5 <= 1
node16_6 + node11_6 <= 1
node16_7 + node11_7 <= 1
node16_8 + node11_8 <= 1
node16_9 + node11_9 <= 1
node16_10 + node11_10 <= 1
node16_11 + node11_11 <= 1
node16_12 + node11_12 <= 1
node16_13 + node11_13 <= 1
node16_14 + node11_14 <= 1
node16_15 + node11_15 <= 1
node16_16 + node11_16 <= 1
node16_17 + node11_17 <= 1
node16_18 + node11_18 <= 1
node16_19 + node11_19 <= 1
node6_0 + node5_0 <= 1
node6_1 + node5_1 <= 1
node6_2 + node5_2 <= 1
node6_3 + node5_3 <= 1
node6_4 + node5_4 <= 1
node6_5 + node5_5 <= 1
node6_6 + node5_6 <= 1
node6_7 + node5_7 <= 1
node6_8 + node5_8 <= 1
node6_9 + node5_9 <= 1
node6_10 + node5_10 <= 1
node6_11 + node5_11 <= 1
node6_12 + node5_12 <= 1
node6_13 + node5_13 <= 1
node6_14 + node5_14 <= 1
node6_15 + node5_15 <= 1
node6_16 + node5_16 <= 1
node6_17 + node5_17 <= 1
node6_18 + node5_18 <= 1
node6_19 + node5_19 <= 1
node15_0 + node1_0 <= 1
node15_1 + node1_1 <= 1
node15_2 + node1_2 <= 1
node15_3 + node1_3 <= 1
node15_4 + node1_4 <= 1
node15_5 + node1_5 <= 1
node15_6 + node1_6 <= 1
node15_7 + node1_7 <= 1
node15_8 + node1_8 <= 1
node15_9 + node1_9 <= 1
node15_10 + node1_10 <= 1
node15_11 + node1_11 <= 1
node15_12 + node1_12 <= 1
node15_13 + node1_13 <= 1
node15_14 + node1_14 <= 1
node15_15 + node1_15 <= 1
node15_16 + node1_16 <= 1
node15_17 + node1_17 <= 1
node15_18 + node1_18 <= 1
node15_19 + node1_19 <= 1
node4_0 + node1_0 <= 1
node4_1 + node1_1 <= 1
node4_2 + node1_2 <= 1
node4_3 + node1_3 <= 1
node4_4 + node1_4 <= 1
node4_5 + node1_5 <= 1
node4_6 + node1_6 <= 1
node4_7 + node1_7 <= 1
node4_8 + node1_8 <= 1
node4_9 + node1_9 <= 1
node4_10 + node1_10 <= 1
node4_11 + node1_11 <= 1
node4_12 + node1_12 <= 1
node4_13 + node1_13 <= 1
node4_14 + node1_14 <= 1
node4_15 + node1_15 <= 1
node4_16 + node1_16 <= 1
node4_17 + node1_17 <= 1
node4_18 + node1_18 <= 1
node4_19 + node1_19 <= 1
node17_0 + node1_0 <= 1
node17_1 + node1_1 <= 1
node17_2 + node1_2 <= 1
node17_3 + node1_3 <= 1
node17_4 + node1_4 <= 1
node17_5 + node1_5 <= 1
node17_6 + node1_6 <= 1
node17_7 + node1_7 <= 1
node17_8 + node1_8 <= 1
node17_9 + node1_9 <= 1
node17_10 + node1_10 <= 1
node17_11 + node1_11 <= 1
node17_12 + node1_12 <= 1
node17_13 + node1_13 <= 1
node17_14 + node1_14 <= 1
node17_15 + node1_15 <= 1
node17_16 + node1_16 <= 1
node17_17 + node1_17 <= 1
node17_18 + node1_18 <= 1
node17_19 + node1_19 <= 1
node18_0 + node10_0 <= 1
node18_1 + node10_1 <= 1
node18_2 + node10_2 <= 1
node18_3 + node10_3 <= 1
node18_4 + node10_4 <= 1
node18_5 + node10_5 <= 1
node18_6 + node10_6 <= 1
node18_7 + node10_7 <= 1
node18_8 + node10_8 <= 1
node18_9 + node10_9 <= 1
node18_10 + node10_10 <= 1
node18_11 + node10_11 <= 1
node18_12 + node10_12 <= 1
node18_13 + node10_13 <= 1
node18_14 + node10_14 <= 1
node18_15 + node10_15 <= 1
node18_16 + node10_16 <= 1
node18_17 + node10_17 <= 1
node18_18 + node10_18 <= 1
node18_19 + node10_19 <= 1
node13_0 + node3_0 <= 1
node13_1 + node3_1 <= 1
node13_2 + node3_2 <= 1
node13_3 + node3_3 <= 1
node13_4 + node3_4 <= 1
node13_5 + node3_5 <= 1
node13_6 + node3_6 <= 1
node13_7 + node3_7 <= 1
node13_8 + node3_8 <= 1
node13_9 + node3_9 <= 1
node13_10 + node3_10 <= 1
node13_11 + node3_11 <= 1
node13_12 + node3_12 <= 1
node13_13 + node3_13 <= 1
node13_14 + node3_14 <= 1
node13_15 + node3_15 <= 1
node13_16 + node3_16 <= 1
node13_17 + node3_17 <= 1
node13_18 + node3_18 <= 1
node13_19 + node3_19 <= 1
node8_0 + node6_0 <= 1
node8_1 + node6_1 <= 1
node8_2 + node6_2 <= 1
node8_3 + node6_3 <= 1
node8_4 + node6_4 <= 1
node8_5 + node6_5 <= 1
node8_6 + node6_6 <= 1
node8_7 + node6_7 <= 1
node8_8 + node6_8 <= 1
node8_9 + node6_9 <= 1
node8_10 + node6_10 <= 1
node8_11 + node6_11 <= 1
node8_12 + node6_12 <= 1
node8_13 + node6_13 <= 1
node8_14 + node6_14 <= 1
node8_15 + node6_15 <= 1
node8_16 + node6_16 <= 1
node8_17 + node6_17 <= 1
node8_18 + node6_18 <= 1
node8_19 + node6_19 <= 1
node7_0 + node0_0 <= 1
node7_1 + node0_1 <= 1
node7_2 + node0_2 <= 1
node7_3 + node0_3 <= 1
node7_4 + node0_4 <= 1
node7_5 + node0_5 <= 1
node7_6 + node0_6 <= 1
node7_7 + node0_7 <= 1
node7_8 + node0_8 <= 1
node7_9 + node0_9 <= 1
node7_10 + node0_10 <= 1
node7_11 + node0_11 <= 1
node7_12 + node0_12 <= 1
node7_13 + node0_13 <= 1
node7_14 + node0_14 <= 1
node7_15 + node0_15 <= 1
node7_16 + node0_16 <= 1
node7_17 + node0_17 <= 1
node7_18 + node0_18 <= 1
node7_19 + node0_19 <= 1
node13_0 + node4_0 <= 1
node13_1 + node4_1 <= 1
node13_2 + node4_2 <= 1
node13_3 + node4_3 <= 1
node13_4 + node4_4 <= 1
node13_5 + node4_5 <= 1
node13_6 + node4_6 <= 1
node13_7 + node4_7 <= 1
node13_8 + node4_8 <= 1
node13_9 + node4_9 <= 1
node13_10 + node4_10 <= 1
node13_11 + node4_11 <= 1
node13_12 + node4_12 <= 1
node13_13 + node4_13 <= 1
node13_14 + node4_14 <= 1
node13_15 + node4_15 <= 1
node13_16 + node4_16 <= 1
node13_17 + node4_17 <= 1
node13_18 + node4_18 <= 1
node13_19 + node4_19 <= 1
node8_0 + node5_0 <= 1
node8_1 + node5_1 <= 1
node8_2 + node5_2 <= 1
node8_3 + node5_3 <= 1
node8_4 + node5_4 <= 1
node8_5 + node5_5 <= 1
node8_6 + node5_6 <= 1
node8_7 + node5_7 <= 1
node8_8 + node5_8 <= 1
node8_9 + node5_9 <= 1
node8_10 + node5_10 <= 1
node8_11 + node5_11 <= 1
node8_12 + node5_12 <= 1
node8_13 + node5_13 <= 1
node8_14 + node5_14 <= 1
node8_15 + node5_15 <= 1
node8_16 + node5_16 <= 1
node8_17 + node5_17 <= 1
node8_18 + node5_18 <= 1
node8_19 + node5_19 <= 1
node12_0 + node11_0 <= 1
node12_1 + node11_1 <= 1
node12_2 + node11_2 <= 1
node12_3 + node11_3 <= 1
node12_4 + node11_4 <= 1
node12_5 + node11_5 <= 1
node12_6 + node11_6 <= 1
node12_7 + node11_7 <= 1
node12_8 + node11_8 <= 1
node12_9 + node11_9 <= 1
node12_10 + node11_10 <= 1
node12_11 + node11_11 <= 1
node12_12 + node11_12 <= 1
node12_13 + node11_13 <= 1
node12_14 + node11_14 <= 1
node12_15 + node11_15 <= 1
node12_16 + node11_16 <= 1
node12_17 + node11_17 <= 1
node12_18 + node11_18 <= 1
node12_19 + node11_19 <= 1
node19_0 + node10_0 <= 1
node19_1 + node10_1 <= 1
node19_2 + node10_2 <= 1
node19_3 + node10_3 <= 1
node19_4 + node10_4 <= 1
node19_5 + node10_5 <= 1
node19_6 + node10_6 <= 1
node19_7 + node10_7 <= 1
node19_8 + node10_8 <= 1
node19_9 + node10_9 <= 1
node19_10 + node10_10 <= 1
node19_11 + node10_11 <= 1
node19_12 + node10_12 <= 1
node19_13 + node10_13 <= 1
node19_14 + node10_14 <= 1
node19_15 + node10_15 <= 1
node19_16 + node10_16 <= 1
node19_17 + node10_17 <= 1
node19_18 + node10_18 <= 1
node19_19 + node10_19 <= 1
node19_0 + node14_0 <= 1
node19_1 + node14_1 <= 1
node19_2 + node14_2 <= 1
node19_3 + node14_3 <= 1
node19_4 + node14_4 <= 1
node19_5 + node14_5 <= 1
node19_6 + node14_6 <= 1
node19_7 + node14_7 <= 1
node19_8 + node14_8 <= 1
node19_9 + node14_9 <= 1
node19_10 + node14_10 <= 1
node19_11 + node14_11 <= 1
node19_12 + node14_12 <= 1
node19_13 + node14_13 <= 1
node19_14 + node14_14 <= 1
node19_15 + node14_15 <= 1
node19_16 + node14_16 <= 1
node19_17 + node14_17 <= 1
node19_18 + node14_18 <= 1
node19_19 + node14_19 <= 1
node7_0 + node5_0 <= 1
node7_1 + node5_1 <= 1
node7_2 + node5_2 <= 1
node7_3 + node5_3 <= 1
node7_4 + node5_4 <= 1
node7_5 + node5_5 <= 1
node7_6 + node5_6 <= 1
node7_7 + node5_7 <= 1
node7_8 + node5_8 <= 1
node7_9 + node5_9 <= 1
node7_10 + node5_10 <= 1
node7_11 + node5_11 <= 1
node7_12 + node5_12 <= 1
node7_13 + node5_13 <= 1
node7_14 + node5_14 <= 1
node7_15 + node5_15 <= 1
node7_16 + node5_16 <= 1
node7_17 + node5_17 <= 1
node7_18 + node5_18 <= 1
node7_19 + node5_19 <= 1
node12_0 + node2_0 <= 1
node12_1 + node2_1 <= 1
node12_2 + node2_2 <= 1
node12_3 + node2_3 <= 1
node12_4 + node2_4 <= 1
node12_5 + node2_5 <= 1
node12_6 + node2_6 <= 1
node12_7 + node2_7 <= 1
node12_8 + node2_8 <= 1
node12_9 + node2_9 <= 1
node12_10 + node2_10 <= 1
node12_11 + node2_11 <= 1
node12_12 + node2_12 <= 1
node12_13 + node2_13 <= 1
node12_14 + node2_14 <= 1
node12_15 + node2_15 <= 1
node12_16 + node2_16 <= 1
node12_17 + node2_17 <= 1
node12_18 + node2_18 <= 1
node12_19 + node2_19 <= 1
node19_0 + node12_0 <= 1
node19_1 + node12_1 <= 1
node19_2 + node12_2 <= 1
node19_3 + node12_3 <= 1
node19_4 + node12_4 <= 1
node19_5 + node12_5 <= 1
node19_6 + node12_6 <= 1
node19_7 + node12_7 <= 1
node19_8 + node12_8 <= 1
node19_9 + node12_9 <= 1
node19_10 + node12_10 <= 1
node19_11 + node12_11 <= 1
node19_12 + node12_12 <= 1
node19_13 + node12_13 <= 1
node19_14 + node12_14 <= 1
node19_15 + node12_15 <= 1
node19_16 + node12_16 <= 1
node19_17 + node12_17 <= 1
node19_18 + node12_18 <= 1
node19_19 + node12_19 <= 1
node15_0 + node9_0 <= 1
node15_1 + node9_1 <= 1
node15_2 + node9_2 <= 1
node15_3 + node9_3 <= 1
node15_4 + node9_4 <= 1
node15_5 + node9_5 <= 1
node15_6 + node9_6 <= 1
node15_7 + node9_7 <= 1
node15_8 + node9_8 <= 1
node15_9 + node9_9 <= 1
node15_10 + node9_10 <= 1
node15_11 + node9_11 <= 1
node15_12 + node9_12 <= 1
node15_13 + node9_13 <= 1
node15_14 + node9_14 <= 1
node15_15 + node9_15 <= 1
node15_16 + node9_16 <= 1
node15_17 + node9_17 <= 1
node15_18 + node9_18 <= 1
node15_19 + node9_19 <= 1
node18_0 + node5_0 <= 1
node18_1 + node5_1 <= 1
node18_2 + node5_2 <= 1
node18_3 + node5_3 <= 1
node18_4 + node5_4 <= 1
node18_5 + node5_5 <= 1
node18_6 + node5_6 <= 1
node18_7 + node5_7 <= 1
node18_8 + node5_8 <= 1
node18_9 + node5_9 <= 1
node18_10 + node5_10 <= 1
node18_11 + node5_11 <= 1
node18_12 + node5_12 <= 1
node18_13 + node5_13 <= 1
node18_14 + node5_14 <= 1
node18_15 + node5_15 <= 1
node18_16 + node5_16 <= 1
node18_17 + node5_17 <= 1
node18_18 + node5_18 <= 1
node18_19 + node5_19 <= 1
node19_0 + node18_0 <= 1
node19_1 + node18_1 <= 1
node19_2 + node18_2 <= 1
node19_3 + node18_3 <= 1
node19_4 + node18_4 <= 1
node19_5 + node18_5 <= 1
node19_6 + node18_6 <= 1
node19_7 + node18_7 <= 1
node19_8 + node18_8 <= 1
node19_9 + node18_9 <= 1
node19_10 + node18_10 <= 1
node19_11 + node18_11 <= 1
node19_12 + node18_12 <= 1
node19_13 + node18_13 <= 1
node19_14 + node18_14 <= 1
node19_15 + node18_15 <= 1
node19_16 + node18_16 <= 1
node19_17 + node18_17 <= 1
node19_18 + node18_18 <= 1
node19_19 + node18_19 <= 1
node16_0 + node13_0 <= 1
node16_1 + node13_1 <= 1
node16_2 + node13_2 <= 1
node16_3 + node13_3 <= 1
node16_4 + node13_4 <= 1
node16_5 + node13_5 <= 1
node16_6 + node13_6 <= 1
node16_7 + node13_7 <= 1
node16_8 + node13_8 <= 1
node16_9 + node13_9 <= 1
node16_10 + node13_10 <= 1
node16_11 + node13_11 <= 1
node16_12 + node13_12 <= 1
node16_13 + node13_13 <= 1
node16_14 + node13_14 <= 1
node16_15 + node13_15 <= 1
node16_16 + node13_16 <= 1
node16_17 + node13_17 <= 1
node16_18 + node13_18 <= 1
node16_19 + node13_19 <= 1
node4_0 + node2_0 <= 1
node4_1 + node2_1 <= 1
node4_2 + node2_2 <= 1
node4_3 + node2_3 <= 1
node4_4 + node2_4 <= 1
node4_5 + node2_5 <= 1
node4_6 + node2_6 <= 1
node4_7 + node2_7 <= 1
node4_8 + node2_8 <= 1
node4_9 + node2_9 <= 1
node4_10 + node2_10 <= 1
node4_11 + node2_11 <= 1
node4_12 + node2_12 <= 1
node4_13 + node2_13 <= 1
node4_14 + node2_14 <= 1
node4_15 + node2_15 <= 1
node4_16 + node2_16 <= 1
node4_17 + node2_17 <= 1
node4_18 + node2_18 <= 1
node4_19 + node2_19 <= 1
node4_0 + node3_0 <= 1
node4_1 + node3_1 <= 1
node4_2 + node3_2 <= 1
node4_3 + node3_3 <= 1
node4_4 + node3_4 <= 1
node4_5 + node3_5 <= 1
node4_6 + node3_6 <= 1
node4_7 + node3_7 <= 1
node4_8 + node3_8 <= 1
node4_9 + node3_9 <= 1
node4_10 + node3_10 <= 1
node4_11 + node3_11 <= 1
node4_12 + node3_12 <= 1
node4_13 + node3_13 <= 1
node4_14 + node3_14 <= 1
node4_15 + node3_15 <= 1
node4_16 + node3_16 <= 1
node4_17 + node3_17 <= 1
node4_18 + node3_18 <= 1
node4_19 + node3_19 <= 1
node6_0 + node0_0 <= 1
node6_1 + node0_1 <= 1
node6_2 + node0_2 <= 1
node6_3 + node0_3 <= 1
node6_4 + node0_4 <= 1
node6_5 + node0_5 <= 1
node6_6 + node0_6 <= 1
node6_7 + node0_7 <= 1
node6_8 + node0_8 <= 1
node6_9 + node0_9 <= 1
node6_10 + node0_10 <= 1
node6_11 + node0_11 <= 1
node6_12 + node0_12 <= 1
node6_13 + node0_13 <= 1
node6_14 + node0_14 <= 1
node6_15 + node0_15 <= 1
node6_16 + node0_16 <= 1
node6_17 + node0_17 <= 1
node6_18 + node0_18 <= 1
node6_19 + node0_19 <= 1
node11_0 + node3_0 <= 1
node11_1 + node3_1 <= 1
node11_2 + node3_2 <= 1
node11_3 + node3_3 <= 1
node11_4 + node3_4 <= 1
node11_5 + node3_5 <= 1
node11_6 + node3_6 <= 1
node11_7 + node3_7 <= 1
node11_8 + node3_8 <= 1
node11_9 + node3_9 <= 1
node11_10 + node3_10 <= 1
node11_11 + node3_11 <= 1
node11_12 + node3_12 <= 1
node11_13 + node3_13 <= 1
node11_14 + node3_14 <= 1
node11_15 + node3_15 <= 1
node11_16 + node3_16 <= 1
node11_17 + node3_17 <= 1
node11_18 + node3_18 <= 1
node11_19 + node3_19 <= 1
node9_0 + node4_0 <= 1
node9_1 + node4_1 <= 1
node9_2 + node4_2 <= 1
node9_3 + node4_3 <= 1
node9_4 + node4_4 <= 1
node9_5 + node4_5 <= 1
node9_6 + node4_6 <= 1
node9_7 + node4_7 <= 1
node9_8 + node4_8 <= 1
node9_9 + node4_9 <= 1
node9_10 + node4_10 <= 1
node9_11 + node4_11 <= 1
node9_12 + node4_12 <= 1
node9_13 + node4_13 <= 1
node9_14 + node4_14 <= 1
node9_15 + node4_15 <= 1
node9_16 + node4_16 <= 1
node9_17 + node4_17 <= 1
node9_18 + node4_18 <= 1
node9_19 + node4_19 <= 1
node14_0 + node12_0 <= 1
node14_1 + node12_1 <= 1
node14_2 + node12_2 <= 1
node14_3 + node12_3 <= 1
node14_4 + node12_4 <= 1
node14_5 + node12_5 <= 1
node14_6 + node12_6 <= 1
node14_7 + node12_7 <= 1
node14_8 + node12_8 <= 1
node14_9 + node12_9 <= 1
node14_10 + node12_10 <= 1
node14_11 + node12_11 <= 1
node14_12 + node12_12 <= 1
node14_13 + node12_13 <= 1
node14_14 + node12_14 <= 1
node14_15 + node12_15 <= 1
node14_16 + node12_16 <= 1
node14_17 + node12_17 <= 1
node14_18 + node12_18 <= 1
node14_19 + node12_19 <= 1
node17_0 + node4_0 <= 1
node17_1 + node4_1 <= 1
node17_2 + node4_2 <= 1
node17_3 + node4_3 <= 1
node17_4 + node4_4 <= 1
node17_5 + node4_5 <= 1
node17_6 + node4_6 <= 1
node17_7 + node4_7 <= 1
node17_8 + node4_8 <= 1
node17_9 + node4_9 <= 1
node17_10 + node4_10 <= 1
node17_11 + node4_11 <= 1
node17_12 + node4_12 <= 1
node17_13 + node4_13 <= 1
node17_14 + node4_14 <= 1
node17_15 + node4_15 <= 1
node17_16 + node4_16 <= 1
node17_17 + node4_17 <= 1
node17_18 + node4_18 <= 1
node17_19 + node4_19 <= 1
node14_0 + node10_0 <= 1
node14_1 + node10_1 <= 1
node14_2 + node10_2 <= 1
node14_3 + node10_3 <= 1
node14_4 + node10_4 <= 1
node14_5 + node10_5 <= 1
node14_6 + node10_6 <= 1
node14_7 + node10_7 <= 1
node14_8 + node10_8 <= 1
node14_9 + node10_9 <= 1
node14_10 + node10_10 <= 1
node14_11 + node10_11 <= 1
node14_12 + node10_12 <= 1
node14_13 + node10_13 <= 1
node14_14 + node10_14 <= 1
node14_15 + node10_15 <= 1
node14_16 + node10_16 <= 1
node14_17 + node10_17 <= 1
node14_18 + node10_18 <= 1
node14_19 + node10_19 <= 1
node6_0 + node4_0 <= 1
node6_1 + node4_1 <= 1
node6_2 + node4_2 <= 1
node6_3 + node4_3 <= 1
node6_4 + node4_4 <= 1
node6_5 + node4_5 <= 1
node6_6 + node4_6 <= 1
node6_7 + node4_7 <= 1
node6_8 + node4_8 <= 1
node6_9 + node4_9 <= 1
node6_10 + node4_10 <= 1
node6_11 + node4_11 <= 1
node6_12 + node4_12 <= 1
node6_13 + node4_13 <= 1
node6_14 + node4_14 <= 1
node6_15 + node4_15 <= 1
node6_16 + node4_16 <= 1
node6_17 + node4_17 <= 1
node6_18 + node4_18 <= 1
node6_19 + node4_19 <= 1
node9_0 + node0_0 <= 1
node9_1 + node0_1 <= 1
node9_2 + node0_2 <= 1
node9_3 + node0_3 <= 1
node9_4 + node0_4 <= 1
node9_5 + node0_5 <= 1
node9_6 + node0_6 <= 1
node9_7 + node0_7 <= 1
node9_8 + node0_8 <= 1
node9_9 + node0_9 <= 1
node9_10 + node0_10 <= 1
node9_11 + node0_11 <= 1
node9_12 + node0_12 <= 1
node9_13 + node0_13 <= 1
node9_14 + node0_14 <= 1
node9_15 + node0_15 <= 1
node9_16 + node0_16 <= 1
node9_17 + node0_17 <= 1
node9_18 + node0_18 <= 1
node9_19 + node0_19 <= 1
node9_0 + node1_0 <= 1
node9_1 + node1_1 <= 1
node9_2 + node1_2 <= 1
node9_3 + node1_3 <= 1
node9_4 + node1_4 <= 1
node9_5 + node1_5 <= 1
node9_6 + node1_6 <= 1
node9_7 + node1_7 <= 1
node9_8 + node1_8 <= 1
node9_9 + node1_9 <= 1
node9_10 + node1_10 <= 1
node9_11 + node1_11 <= 1
node9_12 + node1_12 <= 1
node9_13 + node1_13 <= 1
node9_14 + node1_14 <= 1
node9_15 + node1_15 <= 1
node9_16 + node1_16 <= 1
node9_17 + node1_17 <= 1
node9_18 + node1_18 <= 1
node9_19 + node1_19 <= 1
node14_0 + node2_0 <= 1
node14_1 + node2_1 <= 1
node14_2 + node2_2 <= 1
node14_3 + node2_3 <= 1
node14_4 + node2_4 <= 1
node14_5 + node2_5 <= 1
node14_6 + node2_6 <= 1
node14_7 + node2_7 <= 1
node14_8 + node2_8 <= 1
node14_9 + node2_9 <= 1
node14_10 + node2_10 <= 1
node14_11 + node2_11 <= 1
node14_12 + node2_12 <= 1
node14_13 + node2_13 <= 1
node14_14 + node2_14 <= 1
node14_15 + node2_15 <= 1
node14_16 + node2_16 <= 1
node14_17 + node2_17 <= 1
node14_18 + node2_18 <= 1
node14_19 + node2_19 <= 1
node10_0 + node2_0 <= 1
node10_1 + node2_1 <= 1
node10_2 + node2_2 <= 1
node10_3 + node2_3 <= 1
node10_4 + node2_4 <= 1
node10_5 + node2_5 <= 1
node10_6 + node2_6 <= 1
node10_7 + node2_7 <= 1
node10_8 + node2_8 <= 1
node10_9 + node2_9 <= 1
node10_10 + node2_10 <= 1
node10_11 + node2_11 <= 1
node10_12 + node2_12 <= 1
node10_13 + node2_13 <= 1
node10_14 + node2_14 <= 1
node10_15 + node2_15 <= 1
node10_16 + node2_16 <= 1
node10_17 + node2_17 <= 1
node10_18 + node2_18 <= 1
node10_19 + node2_19 <= 1
node8_0 + node2_0 <= 1
node8_1 + node2_1 <= 1
node8_2 + node2_2 <= 1
node8_3 + node2_3 <= 1
node8_4 + node2_4 <= 1
node8_5 + node2_5 <= 1
node8_6 + node2_6 <= 1
node8_7 + node2_7 <= 1
node8_8 + node2_8 <= 1
node8_9 + node2_9 <= 1
node8_10 + node2_10 <= 1
node8_11 + node2_11 <= 1
node8_12 + node2_12 <= 1
node8_13 + node2_13 <= 1
node8_14 + node2_14 <= 1
node8_15 + node2_15 <= 1
node8_16 + node2_16 <= 1
node8_17 + node2_17 <= 1
node8_18 + node2_18 <= 1
node8_19 + node2_19 <= 1
node12_0 + node3_0 <= 1
node12_1 + node3_1 <= 1
node12_2 + node3_2 <= 1
node12_3 + node3_3 <= 1
node12_4 + node3_4 <= 1
node12_5 + node3_5 <= 1
node12_6 + node3_6 <= 1
node12_7 + node3_7 <= 1
node12_8 + node3_8 <= 1
node12_9 + node3_9 <= 1
node12_10 + node3_10 <= 1
node12_11 + node3_11 <= 1
node12_12 + node3_12 <= 1
node12_13 + node3_13 <= 1
node12_14 + node3_14 <= 1
node12_15 + node3_15 <= 1
node12_16 + node3_16 <= 1
node12_17 + node3_17 <= 1
node12_18 + node3_18 <= 1
node12_19 + node3_19 <= 1
node13_0 + node11_0 <= 1
node13_1 + node11_1 <= 1
node13_2 + node11_2 <= 1
node13_3 + node11_3 <= 1
node13_4 + node11_4 <= 1
node13_5 + node11_5 <= 1
node13_6 + node11_6 <= 1
node13_7 + node11_7 <= 1
node13_8 + node11_8 <= 1
node13_9 + node11_9 <= 1
node13_10 + node11_10 <= 1
node13_11 + node11_11 <= 1
node13_12 + node11_12 <= 1
node13_13 + node11_13 <= 1
node13_14 + node11_14 <= 1
node13_15 + node11_15 <= 1
node13_16 + node11_16 <= 1
node13_17 + node11_17 <= 1
node13_18 + node11_18 <= 1
node13_19 + node11_19 <= 1
node17_0 + node16_0 <= 1
node17_1 + node16_1 <= 1
node17_2 + node16_2 <= 1
node17_3 + node16_3 <= 1
node17_4 + node16_4 <= 1
node17_5 + node16_5 <= 1
node17_6 + node16_6 <= 1
node17_7 + node16_7 <= 1
node17_8 + node16_8 <= 1
node17_9 + node16_9 <= 1
node17_10 + node16_10 <= 1
node17_11 + node16_11 <= 1
node17_12 + node16_12 <= 1
node17_13 + node16_13 <= 1
node17_14 + node16_14 <= 1
node17_15 + node16_15 <= 1
node17_16 + node16_16 <= 1
node17_17 + node16_17 <= 1
node17_18 + node16_18 <= 1
node17_19 + node16_19 <= 1
node18_0 + node2_0 <= 1
node18_1 + node2_1 <= 1
node18_2 + node2_2 <= 1
node18_3 + node2_3 <= 1
node18_4 + node2_4 <= 1
node18_5 + node2_5 <= 1
node18_6 + node2_6 <= 1
node18_7 + node2_7 <= 1
node18_8 + node2_8 <= 1
node18_9 + node2_9 <= 1
node18_10 + node2_10 <= 1
node18_11 + node2_11 <= 1
node18_12 + node2_12 <= 1
node18_13 + node2_13 <= 1
node18_14 + node2_14 <= 1
node18_15 + node2_15 <= 1
node18_16 + node2_16 <= 1
node18_17 + node2_17 <= 1
node18_18 + node2_18 <= 1
node18_19 + node2_19 <= 1
node18_0 + node7_0 <= 1
node18_1 + node7_1 <= 1
node18_2 + node7_2 <= 1
node18_3 + node7_3 <= 1
node18_4 + node7_4 <= 1
node18_5 + node7_5 <= 1
node18_6 + node7_6 <= 1
node18_7 + node7_7 <= 1
node18_8 + node7_8 <= 1
node18_9 + node7_9 <= 1
node18_10 + node7_10 <= 1
node18_11 + node7_11 <= 1
node18_12 + node7_12 <= 1
node18_13 + node7_13 <= 1
node18_14 + node7_14 <= 1
node18_15 + node7_15 <= 1
node18_16 + node7_16 <= 1
node18_17 + node7_17 <= 1
node18_18 + node7_18 <= 1
node18_19 + node7_19 <= 1
node3_0 + node2_0 <= 1
node3_1 + node2_1 <= 1
node3_2 + node2_2 <= 1
node3_3 + node2_3 <= 1
node3_4 + node2_4 <= 1
node3_5 + node2_5 <= 1
node3_6 + node2_6 <= 1
node3_7 + node2_7 <= 1
node3_8 + node2_8 <= 1
node3_9 + node2_9 <= 1
node3_10 + node2_10 <= 1
node3_11 + node2_11 <= 1
node3_12 + node2_12 <= 1
node3_13 + node2_13 <= 1
node3_14 + node2_14 <= 1
node3_15 + node2_15 <= 1
node3_16 + node2_16 <= 1
node3_17 + node2_17 <= 1
node3_18 + node2_18 <= 1
node3_19 + node2_19 <= 1
node17_0 + node13_0 <= 1
node17_1 + node13_1 <= 1
node17_2 + node13_2 <= 1
node17_3 + node13_3 <= 1
node17_4 + node13_4 <= 1
node17_5 + node13_5 <= 1
node17_6 + node13_6 <= 1
node17_7 + node13_7 <= 1
node17_8 + node13_8 <= 1
node17_9 + node13_9 <= 1
node17_10 + node13_10 <= 1
node17_11 + node13_11 <= 1
node17_12 + node13_12 <= 1
node17_13 + node13_13 <= 1
node17_14 + node13_14 <= 1
node17_15 + node13_15 <= 1
node17_16 + node13_16 <= 1
node17_17 + node13_17 <= 1
node17_18 + node13_18 <= 1
node17_19 + node13_19 <= 1
Integer
node0_0
node0_1
node0_2
node0_3
node0_4
node0_5
node0_6
node0_7
node0_8
node0_9
node0_10
node0_11
node0_12
node0_13
node0_14
node0_15
node0_16
node0_17
node0_18
node0_19
w0
node1_0
node1_1
node1_2
node1_3
node1_4
node1_5
node1_6
node1_7
node1_8
node1_9
node1_10
node1_11
node1_12
node1_13
node1_14
node1_15
node1_16
node1_17
node1_18
node1_19
w1
node2_0
node2_1
node2_2
node2_3
node2_4
node2_5
node2_6
node2_7
node2_8
node2_9
node2_10
node2_11
node2_12
node2_13
node2_14
node2_15
node2_16
node2_17
node2_18
node2_19
w2
node3_0
node3_1
node3_2
node3_3
node3_4
node3_5
node3_6
node3_7
node3_8
node3_9
node3_10
node3_11
node3_12
node3_13
node3_14
node3_15
node3_16
node3_17
node3_18
node3_19
w3
node4_0
node4_1
node4_2
node4_3
node4_4
node4_5
node4_6
node4_7
node4_8
node4_9
node4_10
node4_11
node4_12
node4_13
node4_14
node4_15
node4_16
node4_17
node4_18
node4_19
w4
node5_0
node5_1
node5_2
node5_3
node5_4
node5_5
node5_6
node5_7
node5_8
node5_9
node5_10
node5_11
node5_12
node5_13
node5_14
node5_15
node5_16
node5_17
node5_18
node5_19
w5
node6_0
node6_1
node6_2
node6_3
node6_4
node6_5
node6_6
node6_7
node6_8
node6_9
node6_10
node6_11
node6_12
node6_13
node6_14
node6_15
node6_16
node6_17
node6_18
node6_19
w6
node7_0
node7_1
node7_2
node7_3
node7_4
node7_5
node7_6
node7_7
node7_8
node7_9
node7_10
node7_11
node7_12
node7_13
node7_14
node7_15
node7_16
node7_17
node7_18
node7_19
w7
node8_0
node8_1
node8_2
node8_3
node8_4
node8_5
node8_6
node8_7
node8_8
node8_9
node8_10
node8_11
node8_12
node8_13
node8_14
node8_15
node8_16
node8_17
node8_18
node8_19
w8
node9_0
node9_1
node9_2
node9_3
node9_4
node9_5
node9_6
node9_7
node9_8
node9_9
node9_10
node9_11
node9_12
node9_13
node9_14
node9_15
node9_16
node9_17
node9_18
node9_19
w9
node10_0
node10_1
node10_2
node10_3
node10_4
node10_5
node10_6
node10_7
node10_8
node10_9
node10_10
node10_11
node10_12
node10_13
node10_14
node10_15
node10_16
node10_17
node10_18
node10_19
w10
node11_0
node11_1
node11_2
node11_3
node11_4
node11_5
node11_6
node11_7
node11_8
node11_9
node11_10
node11_11
node11_12
node11_13
node11_14
node11_15
node11_16
node11_17
node11_18
node11_19
w11
node12_0
node12_1
node12_2
node12_3
node12_4
node12_5
node12_6
node12_7
node12_8
node12_9
node12_10
node12_11
node12_12
node12_13
node12_14
node12_15
node12_16
node12_17
node12_18
node12_19
w12
node13_0
node13_1
node13_2
node13_3
node13_4
node13_5
node13_6
node13_7
node13_8
node13_9
node13_10
node13_11
node13_12
node13_13
node13_14
node13_15
node13_16
node13_17
node13_18
node13_19
w13
node14_0
node14_1
node14_2
node14_3
node14_4
node14_5
node14_6
node14_7
node14_8
node14_9
node14_10
node14_11
node14_12
node14_13
node14_14
node14_15
node14_16
node14_17
node14_18
node14_19
w14
node15_0
node15_1
node15_2
node15_3
node15_4
node15_5
node15_6
node15_7
node15_8
node15_9
node15_10
node15_11
node15_12
node15_13
node15_14
node15_15
node15_16
node15_17
node15_18
node15_19
w15
node16_0
node16_1
node16_2
node16_3
node16_4
node16_5
node16_6
node16_7
node16_8
node16_9
node16_10
node16_11
node16_12
node16_13
node16_14
node16_15
node16_16
node16_17
node16_18
node16_19
w16
node17_0
node17_1
node17_2
node17_3
node17_4
node17_5
node17_6
node17_7
node17_8
node17_9
node17_10
node17_11
node17_12
node17_13
node17_14
node17_15
node17_16
node17_17
node17_18
node17_19
w17
node18_0
node18_1
node18_2
node18_3
node18_4
node18_5
node18_6
node18_7
node18_8
node18_9
node18_10
node18_11
node18_12
node18_13
node18_14
node18_15
node18_16
node18_17
node18_18
node18_19
w18
node19_0
node19_1
node19_2
node19_3
node19_4
node19_5
node19_6
node19_7
node19_8
node19_9
node19_10
node19_11
node19_12
node19_13
node19_14
node19_15
node19_16
node19_17
node19_18
node19_19
w19
End